p tw 228 248
1 2
2 113
3 14
4 5
5 6
6 7
7 8
7 10
8 9
9 10
10 11
11 12
12 13
13 15
14 25
14 193
15 16
16 17
17 18
18 19
19 20
20 21
21 22
22 23
23 24
24 26
25 36
26 27
26 33
27 28
28 29
29 30
30 31
31 32
32 33
33 34
34 35
35 37
36 47
37 38
38 39
39 40
40 41
41 42
42 43
43 44
43 50
44 45
45 46
45 98
46 48
47 58
48 49
48 121
49 33
50 51
51 52
52 53
53 54
54 55
55 56
56 57
57 59
58 69
59 60
60 61
61 62
62 63
63 64
63 82
64 65
65 66
66 67
67 68
68 70
69 80
70 71
71 72
71 74
72 73
73 74
74 75
75 76
76 77
77 78
78 79
79 81
80 91
81 82
82 83
83 84
84 85
85 86
86 87
87 88
88 89
89 90
89 33
90 92
91 102
92 93
93 94
94 95
95 96
96 97
97 33
98 99
99 100
100 101
101 103
102 114
103 104
104 105
105 106
106 107
107 108
108 109
109 110
110 111
111 112
111 33
112 115
113 152
114 125
115 116
116 117
117 118
118 119
119 120
120 33
121 122
122 123
123 124
124 126
125 136
126 127
127 128
128 129
129 130
130 131
131 132
132 133
133 134
134 135
134 33
135 137
136 145
137 138
138 139
139 140
140 141
141 142
142 33
143 144
145 146
145 190
146 147
147 148
148 149
149 150
150 151
150 157
151 153
152 163
152 193
153 154
153 168
154 155
155 156
155 177
156 180
157 158
158 159
158 91
159 160
160 161
161 162
162 164
163 174
164 165
165 166
166 167
167 91
168 169
169 170
169 91
170 171
171 172
172 173
173 175
174 185
175 176
176 91
177 178
178 179
179 91
180 181
181 182
182 183
183 184
184 186
185 196
186 187
187 188
188 189
189 91
190 191
191 192
192 193
193 194
194 195
195 197
195 206
196 207
197 198
198 199
199 200
200 201
201 202
202 203
203 204
204 205
205 206
206 208
207 218
207 193
208 209
209 210
210 211
211 212
212 213
213 214
214 215
215 216
216 217
217 219
218 3
219 220
220 221
221 222
222 223
223 224
224 225
225 226
225 18
226 227
227 228
228 4
